(set-info :smt-lib-version 2.6)
(set-info :category "crafted")
(set-logic QF_FFA)
(define-sort FF0 () (_ FiniteField 52435875175126190479447740508185965837690552500527637822603658699938581184513))
(declare-fun return_n1_alt () FF0)
(declare-fun mul_n32_alt () FF0)
(declare-fun mul_n59_alt () FF0)
(declare-fun mul_n35_alt () FF0)
(declare-fun mul_n58_alt () FF0)
(declare-fun mul_n51_alt () FF0)
(declare-fun mul_n57_alt () FF0)
(declare-fun mul_n55_alt () FF0)
(declare-fun mul_n24_alt () FF0)
(declare-fun mul_n56_alt () FF0)
(declare-fun h_n9_alt () FF0)
(declare-fun mul_n39_alt () FF0)
(declare-fun mul_n40_alt () FF0)
(declare-fun mul_n54_alt () FF0)
(declare-fun mul_n28_alt () FF0)
(declare-fun mul_n53_alt () FF0)
(declare-fun mul_n52_alt () FF0)
(declare-fun mul_n31_alt () FF0)
(declare-fun k_n3_alt () FF0)
(declare-fun f_n2_alt () FF0)
(declare-fun mul_n25_alt () FF0)
(declare-fun a_n12_alt () FF0)
(declare-fun mul_n50_alt () FF0)
(declare-fun i_n7_alt () FF0)
(declare-fun mul_n41_alt () FF0)
(declare-fun mul_n49_alt () FF0)
(declare-fun mul_n19_alt () FF0)
(declare-fun mul_n18_alt () FF0)
(declare-fun mul_n42_alt () FF0)
(declare-fun j_n5_alt () FF0)
(declare-fun mul_n48_alt () FF0)
(declare-fun mul_n47_alt () FF0)
(declare-fun mul_n43_alt () FF0)
(declare-fun b_n10_alt () FF0)
(declare-fun mul_n46_alt () FF0)
(declare-fun d_n6_alt () FF0)
(declare-fun mul_n44_alt () FF0)
(declare-fun mul_n21_alt () FF0)
(declare-fun mul_n30_alt () FF0)
(declare-fun e_n4_alt () FF0)
(declare-fun mul_n29_alt () FF0)
(declare-fun mul_n45_alt () FF0)
(declare-fun mul_n20_alt () FF0)
(declare-fun g_n11_alt () FF0)
(declare-fun c_n8_alt () FF0)
(declare-fun mul_n38_alt () FF0)
(declare-fun mul_n37_alt () FF0)
(declare-fun mul_n26_alt () FF0)
(declare-fun mul_n36_alt () FF0)
(declare-fun mul_n34_alt () FF0)
(declare-fun mul_n33_alt () FF0)
(declare-fun mul_n17_alt () FF0)
(declare-fun mul_n27_alt () FF0)
(declare-fun mul_n23_alt () FF0)
(declare-fun mul_n22_alt () FF0)
(declare-fun l_n0_alt () FF0)
(declare-fun mul_n16_alt () FF0)
(declare-fun mul_n15_alt () FF0)
(declare-fun mul_n14_alt () FF0)
(declare-fun mul_n13_alt () FF0)
(declare-fun return_n1 () FF0)
(declare-fun mul_n32 () FF0)
(declare-fun mul_n59 () FF0)
(declare-fun mul_n35 () FF0)
(declare-fun mul_n58 () FF0)
(declare-fun mul_n51 () FF0)
(declare-fun mul_n57 () FF0)
(declare-fun mul_n55 () FF0)
(declare-fun mul_n24 () FF0)
(declare-fun mul_n56 () FF0)
(declare-fun h_n9 () FF0)
(declare-fun mul_n39 () FF0)
(declare-fun mul_n40 () FF0)
(declare-fun mul_n54 () FF0)
(declare-fun mul_n28 () FF0)
(declare-fun mul_n53 () FF0)
(declare-fun mul_n52 () FF0)
(declare-fun mul_n31 () FF0)
(declare-fun k_n3 () FF0)
(declare-fun f_n2 () FF0)
(declare-fun mul_n25 () FF0)
(declare-fun a_n12 () FF0)
(declare-fun mul_n50 () FF0)
(declare-fun i_n7 () FF0)
(declare-fun mul_n41 () FF0)
(declare-fun mul_n49 () FF0)
(declare-fun mul_n19 () FF0)
(declare-fun mul_n18 () FF0)
(declare-fun mul_n42 () FF0)
(declare-fun j_n5 () FF0)
(declare-fun mul_n48 () FF0)
(declare-fun mul_n47 () FF0)
(declare-fun mul_n43 () FF0)
(declare-fun b_n10 () FF0)
(declare-fun mul_n46 () FF0)
(declare-fun d_n6 () FF0)
(declare-fun mul_n44 () FF0)
(declare-fun mul_n21 () FF0)
(declare-fun mul_n30 () FF0)
(declare-fun e_n4 () FF0)
(declare-fun mul_n29 () FF0)
(declare-fun mul_n45 () FF0)
(declare-fun mul_n20 () FF0)
(declare-fun g_n11 () FF0)
(declare-fun c_n8 () FF0)
(declare-fun mul_n38 () FF0)
(declare-fun mul_n37 () FF0)
(declare-fun mul_n26 () FF0)
(declare-fun mul_n36 () FF0)
(declare-fun mul_n34 () FF0)
(declare-fun mul_n33 () FF0)
(declare-fun mul_n17 () FF0)
(declare-fun mul_n27 () FF0)
(declare-fun mul_n23 () FF0)
(declare-fun mul_n22 () FF0)
(declare-fun l_n0 () FF0)
(declare-fun mul_n16 () FF0)
(declare-fun mul_n15 () FF0)
(declare-fun mul_n14 () FF0)
(declare-fun mul_n13 () FF0)
(assert 
  (let ((let0 (as ff1 FF0)))
  (let ((let1 (as ff52435875175126190479447740508185965837690552500527637822603658699938581184512 FF0)))
  (let ((let2 return_n1_alt))
  (let ((let3 (ff.mul let2 let1)))
  (let ((let4 (ff.add let3 let0)))
  (let ((let5 mul_n32_alt))
  (let ((let6 mul_n59_alt))
  (let ((let7 (ff.mul let6 let5)))
  (let ((let8 (= let7 let4)))
  (let ((let9 mul_n35_alt))
  (let ((let10 mul_n58_alt))
  (let ((let11 (ff.mul let10 let9)))
  (let ((let12 (= let11 let6)))
  (let ((let13 mul_n51_alt))
  (let ((let14 (ff.mul let13 let1)))
  (let ((let15 (ff.add let14 let0)))
  (let ((let16 mul_n57_alt))
  (let ((let17 (ff.mul let16 let15)))
  (let ((let18 (= let17 let10)))
  (let ((let19 mul_n55_alt))
  (let ((let20 (ff.mul let19 let1)))
  (let ((let21 (ff.add let20 let0)))
  (let ((let22 mul_n24_alt))
  (let ((let23 mul_n56_alt))
  (let ((let24 (ff.mul let23 let1)))
  (let ((let25 (ff.add let24 let22)))
  (let ((let26 (ff.mul let25 let21)))
  (let ((let27 (= let26 let16)))
  (let ((let28 h_n9_alt))
  (let ((let29 (ff.mul let28 let1)))
  (let ((let30 (ff.add let22 let29)))
  (let ((let31 mul_n39_alt))
  (let ((let32 (ff.mul let31 let30)))
  (let ((let33 (= let32 let23)))
  (let ((let34 mul_n40_alt))
  (let ((let35 (ff.mul let34 let1)))
  (let ((let36 (ff.add let35 let0)))
  (let ((let37 mul_n54_alt))
  (let ((let38 (ff.mul let37 let36)))
  (let ((let39 (= let38 let19)))
  (let ((let40 mul_n28_alt))
  (let ((let41 (ff.mul let40 let1)))
  (let ((let42 (ff.add let41 let0)))
  (let ((let43 mul_n53_alt))
  (let ((let44 (ff.mul let43 let42)))
  (let ((let45 (= let44 let37)))
  (let ((let46 mul_n52_alt))
  (let ((let47 (ff.mul let46 let28)))
  (let ((let48 (= let47 let43)))
  (let ((let49 mul_n31_alt))
  (let ((let50 k_n3_alt))
  (let ((let51 (ff.mul let50 let49)))
  (let ((let52 (= let51 let46)))
  (let ((let53 f_n2_alt))
  (let ((let54 (ff.mul let53 let1)))
  (let ((let55 mul_n25_alt))
  (let ((let56 a_n12_alt))
  (let ((let57 (ff.mul let56 let1)))
  (let ((let58 (ff.add let57 let55 let54 let0)))
  (let ((let59 mul_n50_alt))
  (let ((let60 (ff.mul let59 let58)))
  (let ((let61 (= let60 let13)))
  (let ((let62 i_n7_alt))
  (let ((let63 mul_n41_alt))
  (let ((let64 (ff.add let34 let63 let62 let1)))
  (let ((let65 mul_n49_alt))
  (let ((let66 (ff.mul let65 let64)))
  (let ((let67 (= let66 let59)))
  (let ((let68 mul_n19_alt))
  (let ((let69 (ff.mul let68 let1)))
  (let ((let70 (ff.mul let63 let1)))
  (let ((let71 mul_n18_alt))
  (let ((let72 mul_n42_alt))
  (let ((let73 j_n5_alt))
  (let ((let74 (ff.add let35 let73 let72 let71 let70 let69 let0)))
  (let ((let75 mul_n48_alt))
  (let ((let76 (ff.mul let75 let74)))
  (let ((let77 (= let76 let65)))
  (let ((let78 (ff.add let73 let71 let62 let69)))
  (let ((let79 mul_n47_alt))
  (let ((let80 (ff.mul let79 let78)))
  (let ((let81 (= let80 let75)))
  (let ((let82 mul_n43_alt))
  (let ((let83 b_n10_alt))
  (let ((let84 (ff.add let28 let83 let82 let1)))
  (let ((let85 mul_n46_alt))
  (let ((let86 (ff.mul let85 let84)))
  (let ((let87 (= let86 let79)))
  (let ((let88 d_n6_alt))
  (let ((let89 mul_n44_alt))
  (let ((let90 mul_n21_alt))
  (let ((let91 (ff.mul let90 let1)))
  (let ((let92 mul_n30_alt))
  (let ((let93 e_n4_alt))
  (let ((let94 mul_n29_alt))
  (let ((let95 (ff.mul let94 let1)))
  (let ((let96 (ff.add let95 let93 let92 let91 let89 let41 let88 let56)))
  (let ((let97 mul_n45_alt))
  (let ((let98 (ff.mul let97 let96)))
  (let ((let99 (= let98 let85)))
  (let ((let100 (ff.mul let22 let1)))
  (let ((let101 (ff.add let100 let0)))
  (let ((let102 mul_n20_alt))
  (let ((let103 (ff.mul let102 let101)))
  (let ((let104 (= let103 let97)))
  (let ((let105 (ff.mul let88 let1)))
  (let ((let106 (as ff52435875175126190479447740508185965837690552500527637822603658699938581184511 FF0)))
  (let ((let107 (ff.mul let56 let106)))
  (let ((let108 (ff.mul let92 let1)))
  (let ((let109 (ff.mul let93 let1)))
  (let ((let110 (ff.add let94 let109 let108 let90 let54 let107 let55 let105 let40 let0)))
  (let ((let111 g_n11_alt))
  (let ((let112 (ff.mul let111 let110)))
  (let ((let113 (= let112 let89)))
  (let ((let114 (ff.mul let83 let1)))
  (let ((let115 (ff.add let114 let0)))
  (let ((let116 (as ff2 FF0)))
  (let ((let117 (ff.mul let28 let106)))
  (let ((let118 (ff.add let117 let116)))
  (let ((let119 (ff.mul let118 let115)))
  (let ((let120 (= let119 let82)))
  (let ((let121 (ff.mul let68 let116)))
  (let ((let122 (ff.mul let62 let106)))
  (let ((let123 (ff.mul let71 let106)))
  (let ((let124 (ff.mul let73 let106)))
  (let ((let125 (ff.add let124 let123 let122 let121 let116)))
  (let ((let126 (ff.mul let125 let64)))
  (let ((let127 (= let126 let72)))
  (let ((let128 (ff.add let122 let116)))
  (let ((let129 (ff.mul let128 let36)))
  (let ((let130 (= let129 let63)))
  (let ((let131 (ff.add let93 let91 let88)))
  (let ((let132 (ff.mul let131 let31)))
  (let ((let133 (= let132 let34)))
  (let ((let134 c_n8_alt))
  (let ((let135 (ff.mul let134 let1)))
  (let ((let136 (ff.add let135 let0)))
  (let ((let137 mul_n38_alt))
  (let ((let138 (ff.mul let137 let136)))
  (let ((let139 (= let138 let31)))
  (let ((let140 mul_n37_alt))
  (let ((let141 (ff.mul let140 let28)))
  (let ((let142 (= let141 let137)))
  (let ((let143 mul_n26_alt))
  (let ((let144 (ff.mul let143 let1)))
  (let ((let145 (ff.add let144 let83 let57 let55 let54 let0)))
  (let ((let146 mul_n36_alt))
  (let ((let147 (ff.mul let146 let145)))
  (let ((let148 (= let147 let140)))
  (let ((let149 (ff.mul let71 let1)))
  (let ((let150 (ff.mul let73 let1)))
  (let ((let151 (ff.add let150 let149 let0)))
  (let ((let152 (ff.mul let151 let83)))
  (let ((let153 (= let152 let146)))
  (let ((let154 (ff.mul let50 let1)))
  (let ((let155 (ff.add let154 let0)))
  (let ((let156 mul_n34_alt))
  (let ((let157 (ff.mul let156 let155)))
  (let ((let158 (= let157 let9)))
  (let ((let159 (ff.add let54 let0)))
  (let ((let160 mul_n33_alt))
  (let ((let161 (ff.mul let160 let159)))
  (let ((let162 (= let161 let156)))
  (let ((let163 (ff.mul let102 let1)))
  (let ((let164 (ff.add let163 let0)))
  (let ((let165 (ff.add let57 let0)))
  (let ((let166 (ff.mul let165 let164)))
  (let ((let167 (= let166 let160)))
  (let ((let168 (ff.mul let49 let102)))
  (let ((let169 (= let168 let5)))
  (let ((let170 (ff.add let88 let95 let91 let41 let56 let92 let93)))
  (let ((let171 mul_n17_alt))
  (let ((let172 (ff.mul let171 let1)))
  (let ((let173 (ff.add let172 let0)))
  (let ((let174 (ff.mul let173 let170)))
  (let ((let175 (= let174 let49)))
  (let ((let176 (ff.add let109 let90 let105 let0)))
  (let ((let177 (ff.mul let94 let116)))
  (let ((let178 (ff.mul let40 let116)))
  (let ((let179 (ff.add let178 let177 let107)))
  (let ((let180 (ff.mul let179 let176)))
  (let ((let181 (= let180 let92)))
  (let ((let182 (ff.mul let40 let106)))
  (let ((let183 (ff.add let182 let116)))
  (let ((let184 (ff.mul let183 let56)))
  (let ((let185 (= let184 let94)))
  (let ((let186 mul_n27_alt))
  (let ((let187 (ff.mul let186 let22)))
  (let ((let188 (= let187 let40)))
  (let ((let189 (ff.mul let145 let28)))
  (let ((let190 (= let189 let186)))
  (let ((let191 (ff.mul let83 let116)))
  (let ((let192 (ff.mul let191 let58)))
  (let ((let193 (= let192 let143)))
  (let ((let194 (ff.mul let56 let116)))
  (let ((let195 (ff.mul let194 let53)))
  (let ((let196 (= let195 let55)))
  (let ((let197 (ff.add let105 let0)))
  (let ((let198 mul_n23_alt))
  (let ((let199 (ff.mul let198 let197)))
  (let ((let200 (= let199 let22)))
  (let ((let201 mul_n22_alt))
  (let ((let202 (ff.mul let201 let176)))
  (let ((let203 (= let202 let198)))
  (let ((let204 (ff.mul let111 let1)))
  (let ((let205 (ff.add let204 let0)))
  (let ((let206 (ff.mul let155 let205)))
  (let ((let207 (= let206 let201)))
  (let ((let208 (ff.mul let93 let116)))
  (let ((let209 (ff.mul let208 let88)))
  (let ((let210 (= let209 let90)))
  (let ((let211 (ff.mul let78 let115)))
  (let ((let212 (= let211 let102)))
  (let ((let213 (ff.mul let71 let116)))
  (let ((let214 (ff.mul let73 let116)))
  (let ((let215 (ff.add let214 let213)))
  (let ((let216 (ff.mul let215 let62)))
  (let ((let217 (= let216 let68)))
  (let ((let218 l_n0_alt))
  (let ((let219 (ff.add let218 let150)))
  (let ((let220 (ff.mul let173 let219)))
  (let ((let221 (= let220 let71)))
  (let ((let222 mul_n16_alt))
  (let ((let223 (ff.mul let222 let205)))
  (let ((let224 (= let223 let171)))
  (let ((let225 mul_n15_alt))
  (let ((let226 (ff.mul let225 let136)))
  (let ((let227 (= let226 let222)))
  (let ((let228 (ff.mul let218 let1)))
  (let ((let229 (ff.add let228 let0)))
  (let ((let230 mul_n14_alt))
  (let ((let231 (ff.mul let230 let229)))
  (let ((let232 (= let231 let225)))
  (let ((let233 (ff.add let109 let0)))
  (let ((let234 mul_n13_alt))
  (let ((let235 (ff.mul let234 let233)))
  (let ((let236 (= let235 let230)))
  (let ((let237 (ff.mul let62 let1)))
  (let ((let238 (ff.add let237 let0)))
  (let ((let239 (ff.add let150 let0)))
  (let ((let240 (ff.mul let239 let238)))
  (let ((let241 (= let240 let234)))
  (let ((let242 (and let241 let236 let232 let227 let224 let221 let217 let212 let210 let207 let203 let200 let196 let193 let190 let188 let185 let181 let175 let169 let167 let162 let158 let153 let148 let142 let139 let133 let130 let127 let120 let113 let104 let99 let87 let81 let77 let67 let61 let52 let48 let45 let39 let33 let27 let18 let12 let8)))
  (let ((let243 return_n1))
  (let ((let244 (ff.mul let243 let1)))
  (let ((let245 (ff.add let244 let0)))
  (let ((let246 mul_n32))
  (let ((let247 mul_n59))
  (let ((let248 (ff.mul let247 let246)))
  (let ((let249 (= let248 let245)))
  (let ((let250 mul_n35))
  (let ((let251 mul_n58))
  (let ((let252 (ff.mul let251 let250)))
  (let ((let253 (= let252 let247)))
  (let ((let254 mul_n51))
  (let ((let255 (ff.mul let254 let1)))
  (let ((let256 (ff.add let255 let0)))
  (let ((let257 mul_n57))
  (let ((let258 (ff.mul let257 let256)))
  (let ((let259 (= let258 let251)))
  (let ((let260 mul_n55))
  (let ((let261 (ff.mul let260 let1)))
  (let ((let262 (ff.add let261 let0)))
  (let ((let263 mul_n24))
  (let ((let264 mul_n56))
  (let ((let265 (ff.mul let264 let1)))
  (let ((let266 (ff.add let265 let263)))
  (let ((let267 (ff.mul let266 let262)))
  (let ((let268 (= let267 let257)))
  (let ((let269 h_n9))
  (let ((let270 (ff.mul let269 let1)))
  (let ((let271 (ff.add let263 let270)))
  (let ((let272 mul_n39))
  (let ((let273 (ff.mul let272 let271)))
  (let ((let274 (= let273 let264)))
  (let ((let275 mul_n40))
  (let ((let276 (ff.mul let275 let1)))
  (let ((let277 (ff.add let276 let0)))
  (let ((let278 mul_n54))
  (let ((let279 (ff.mul let278 let277)))
  (let ((let280 (= let279 let260)))
  (let ((let281 mul_n28))
  (let ((let282 (ff.mul let281 let1)))
  (let ((let283 (ff.add let282 let0)))
  (let ((let284 mul_n53))
  (let ((let285 (ff.mul let284 let283)))
  (let ((let286 (= let285 let278)))
  (let ((let287 mul_n52))
  (let ((let288 (ff.mul let287 let269)))
  (let ((let289 (= let288 let284)))
  (let ((let290 mul_n31))
  (let ((let291 k_n3))
  (let ((let292 (ff.mul let291 let290)))
  (let ((let293 (= let292 let287)))
  (let ((let294 f_n2))
  (let ((let295 (ff.mul let294 let1)))
  (let ((let296 mul_n25))
  (let ((let297 a_n12))
  (let ((let298 (ff.mul let297 let1)))
  (let ((let299 (ff.add let298 let296 let295 let0)))
  (let ((let300 mul_n50))
  (let ((let301 (ff.mul let300 let299)))
  (let ((let302 (= let301 let254)))
  (let ((let303 i_n7))
  (let ((let304 mul_n41))
  (let ((let305 (ff.add let275 let304 let303 let1)))
  (let ((let306 mul_n49))
  (let ((let307 (ff.mul let306 let305)))
  (let ((let308 (= let307 let300)))
  (let ((let309 mul_n19))
  (let ((let310 (ff.mul let309 let1)))
  (let ((let311 (ff.mul let304 let1)))
  (let ((let312 mul_n18))
  (let ((let313 mul_n42))
  (let ((let314 j_n5))
  (let ((let315 (ff.add let276 let314 let313 let312 let311 let310 let0)))
  (let ((let316 mul_n48))
  (let ((let317 (ff.mul let316 let315)))
  (let ((let318 (= let317 let306)))
  (let ((let319 (ff.add let314 let312 let303 let310)))
  (let ((let320 mul_n47))
  (let ((let321 (ff.mul let320 let319)))
  (let ((let322 (= let321 let316)))
  (let ((let323 mul_n43))
  (let ((let324 b_n10))
  (let ((let325 (ff.add let269 let324 let323 let1)))
  (let ((let326 mul_n46))
  (let ((let327 (ff.mul let326 let325)))
  (let ((let328 (= let327 let320)))
  (let ((let329 d_n6))
  (let ((let330 mul_n44))
  (let ((let331 mul_n21))
  (let ((let332 (ff.mul let331 let1)))
  (let ((let333 mul_n30))
  (let ((let334 e_n4))
  (let ((let335 mul_n29))
  (let ((let336 (ff.mul let335 let1)))
  (let ((let337 (ff.add let336 let334 let333 let332 let330 let282 let329 let297)))
  (let ((let338 mul_n45))
  (let ((let339 (ff.mul let338 let337)))
  (let ((let340 (= let339 let326)))
  (let ((let341 (ff.mul let263 let1)))
  (let ((let342 (ff.add let341 let0)))
  (let ((let343 mul_n20))
  (let ((let344 (ff.mul let343 let342)))
  (let ((let345 (= let344 let338)))
  (let ((let346 (ff.mul let329 let1)))
  (let ((let347 (ff.mul let297 let106)))
  (let ((let348 (ff.mul let333 let1)))
  (let ((let349 (ff.mul let334 let1)))
  (let ((let350 (ff.add let335 let349 let348 let331 let295 let347 let296 let346 let281 let0)))
  (let ((let351 g_n11))
  (let ((let352 (ff.mul let351 let350)))
  (let ((let353 (= let352 let330)))
  (let ((let354 (ff.mul let324 let1)))
  (let ((let355 (ff.add let354 let0)))
  (let ((let356 (ff.mul let269 let106)))
  (let ((let357 (ff.add let356 let116)))
  (let ((let358 (ff.mul let357 let355)))
  (let ((let359 (= let358 let323)))
  (let ((let360 (ff.mul let309 let116)))
  (let ((let361 (ff.mul let303 let106)))
  (let ((let362 (ff.mul let312 let106)))
  (let ((let363 (ff.mul let314 let106)))
  (let ((let364 (ff.add let363 let362 let361 let360 let116)))
  (let ((let365 (ff.mul let364 let305)))
  (let ((let366 (= let365 let313)))
  (let ((let367 (ff.add let361 let116)))
  (let ((let368 (ff.mul let367 let277)))
  (let ((let369 (= let368 let304)))
  (let ((let370 (ff.add let334 let332 let329)))
  (let ((let371 (ff.mul let370 let272)))
  (let ((let372 (= let371 let275)))
  (let ((let373 c_n8))
  (let ((let374 (ff.mul let373 let1)))
  (let ((let375 (ff.add let374 let0)))
  (let ((let376 mul_n38))
  (let ((let377 (ff.mul let376 let375)))
  (let ((let378 (= let377 let272)))
  (let ((let379 mul_n37))
  (let ((let380 (ff.mul let379 let269)))
  (let ((let381 (= let380 let376)))
  (let ((let382 mul_n26))
  (let ((let383 (ff.mul let382 let1)))
  (let ((let384 (ff.add let383 let324 let298 let296 let295 let0)))
  (let ((let385 mul_n36))
  (let ((let386 (ff.mul let385 let384)))
  (let ((let387 (= let386 let379)))
  (let ((let388 (ff.mul let312 let1)))
  (let ((let389 (ff.mul let314 let1)))
  (let ((let390 (ff.add let389 let388 let0)))
  (let ((let391 (ff.mul let390 let324)))
  (let ((let392 (= let391 let385)))
  (let ((let393 (ff.mul let291 let1)))
  (let ((let394 (ff.add let393 let0)))
  (let ((let395 mul_n34))
  (let ((let396 (ff.mul let395 let394)))
  (let ((let397 (= let396 let250)))
  (let ((let398 (ff.add let295 let0)))
  (let ((let399 mul_n33))
  (let ((let400 (ff.mul let399 let398)))
  (let ((let401 (= let400 let395)))
  (let ((let402 (ff.mul let343 let1)))
  (let ((let403 (ff.add let402 let0)))
  (let ((let404 (ff.add let298 let0)))
  (let ((let405 (ff.mul let404 let403)))
  (let ((let406 (= let405 let399)))
  (let ((let407 (ff.mul let290 let343)))
  (let ((let408 (= let407 let246)))
  (let ((let409 (ff.add let329 let336 let332 let282 let297 let333 let334)))
  (let ((let410 mul_n17))
  (let ((let411 (ff.mul let410 let1)))
  (let ((let412 (ff.add let411 let0)))
  (let ((let413 (ff.mul let412 let409)))
  (let ((let414 (= let413 let290)))
  (let ((let415 (ff.add let349 let331 let346 let0)))
  (let ((let416 (ff.mul let335 let116)))
  (let ((let417 (ff.mul let281 let116)))
  (let ((let418 (ff.add let417 let416 let347)))
  (let ((let419 (ff.mul let418 let415)))
  (let ((let420 (= let419 let333)))
  (let ((let421 (ff.mul let281 let106)))
  (let ((let422 (ff.add let421 let116)))
  (let ((let423 (ff.mul let422 let297)))
  (let ((let424 (= let423 let335)))
  (let ((let425 mul_n27))
  (let ((let426 (ff.mul let425 let263)))
  (let ((let427 (= let426 let281)))
  (let ((let428 (ff.mul let384 let269)))
  (let ((let429 (= let428 let425)))
  (let ((let430 (ff.mul let324 let116)))
  (let ((let431 (ff.mul let430 let299)))
  (let ((let432 (= let431 let382)))
  (let ((let433 (ff.mul let297 let116)))
  (let ((let434 (ff.mul let433 let294)))
  (let ((let435 (= let434 let296)))
  (let ((let436 (ff.add let346 let0)))
  (let ((let437 mul_n23))
  (let ((let438 (ff.mul let437 let436)))
  (let ((let439 (= let438 let263)))
  (let ((let440 mul_n22))
  (let ((let441 (ff.mul let440 let415)))
  (let ((let442 (= let441 let437)))
  (let ((let443 (ff.mul let351 let1)))
  (let ((let444 (ff.add let443 let0)))
  (let ((let445 (ff.mul let394 let444)))
  (let ((let446 (= let445 let440)))
  (let ((let447 (ff.mul let334 let116)))
  (let ((let448 (ff.mul let447 let329)))
  (let ((let449 (= let448 let331)))
  (let ((let450 (ff.mul let319 let355)))
  (let ((let451 (= let450 let343)))
  (let ((let452 (ff.mul let312 let116)))
  (let ((let453 (ff.mul let314 let116)))
  (let ((let454 (ff.add let453 let452)))
  (let ((let455 (ff.mul let454 let303)))
  (let ((let456 (= let455 let309)))
  (let ((let457 l_n0))
  (let ((let458 (ff.add let457 let389)))
  (let ((let459 (ff.mul let412 let458)))
  (let ((let460 (= let459 let312)))
  (let ((let461 mul_n16))
  (let ((let462 (ff.mul let461 let444)))
  (let ((let463 (= let462 let410)))
  (let ((let464 mul_n15))
  (let ((let465 (ff.mul let464 let375)))
  (let ((let466 (= let465 let461)))
  (let ((let467 (ff.mul let457 let1)))
  (let ((let468 (ff.add let467 let0)))
  (let ((let469 mul_n14))
  (let ((let470 (ff.mul let469 let468)))
  (let ((let471 (= let470 let464)))
  (let ((let472 (ff.add let349 let0)))
  (let ((let473 mul_n13))
  (let ((let474 (ff.mul let473 let472)))
  (let ((let475 (= let474 let469)))
  (let ((let476 (ff.mul let303 let1)))
  (let ((let477 (ff.add let476 let0)))
  (let ((let478 (ff.add let389 let0)))
  (let ((let479 (ff.mul let478 let477)))
  (let ((let480 (= let479 let473)))
  (let ((let481 (and let480 let475 let471 let466 let463 let460 let456 let451 let449 let446 let442 let439 let435 let432 let429 let427 let424 let420 let414 let408 let406 let401 let397 let392 let387 let381 let378 let372 let369 let366 let359 let353 let345 let340 let328 let322 let318 let308 let302 let293 let289 let286 let280 let274 let268 let259 let253 let249)))
  (let ((let482 (= let243 let2)))
  (let ((let483 (not let482)))
  (let ((let484 (= let291 let50)))
  (let ((let485 (= let373 let134)))
  (let ((let486 (= let294 let53)))
  (let ((let487 (= let329 let88)))
  (let ((let488 (= let351 let111)))
  (let ((let489 (= let457 let218)))
  (let ((let490 (= let334 let93)))
  (let ((let491 (= let324 let83)))
  (let ((let492 (= let303 let62)))
  (let ((let493 (= let269 let28)))
  (let ((let494 (= let297 let56)))
  (let ((let495 (= let314 let73)))
  (let ((let496 (and let495 let494 let493 let492 let491 let490 let489 let488 let487 let486 let485 let484)))
  (let ((let497 (and let496 let483 let481 let242)))
  let497
))))))))))))))))))))))))))))))))))))))))))))))))))))))))))))))))))))))))))))))))))))))))))))))))))))))))))))))))))))))))))))))))))))))))))))))))))))))))))))))))))))))))))))))))))))))))))))))))))))))))))))))))))))))))))))))))))))))))))))))))))))))))))))))))))))))))))))))))))))))))))))))))))))))))))))))))))))))))))))))))))))))))))))))))))))))))))))))))))))))))))))))))))))))))))))))))))))))))))))))))))))))))))))))))))))))))))))))))))))))))))))))))))))))))))))))))))))))))))))))))))))))))))))))))))
)
(check-sat)
